(set-logic QF_SLIA)
(declare-fun var0 () String)
(assert (not (str.in_re var0 (re.++ ((_ re.loop 9 678) (re.++ (re.union (str.to_re "63X") (re.union (str.to_re "<0") (re.union (str.to_re "Xn&") (str.to_re "PJY")))) (re.++ (re.union (str.to_re "e\\") (re.union (str.to_re "I") (re.union (str.to_re "5;c") (str.to_re ":\\3")))) (re.++ (re.union (str.to_re "#P") (re.union (str.to_re "e") (re.union (str.to_re "&$7") (str.to_re "G")))) (re.union (str.to_re "xC_") (re.union (str.to_re "*@") (re.union (str.to_re "-M") (str.to_re "m1N")))))))) (re.++ ((_ re.loop 7 550) (re.++ (re.union (str.to_re "1") (re.union (str.to_re "o") (re.union (str.to_re "Nd8") (str.to_re "{!")))) (re.++ (re.union (str.to_re "vyZ") (re.union (str.to_re "?") (re.union (str.to_re "7") (str.to_re "-[")))) (re.++ (re.union (str.to_re "k") (re.union (str.to_re "vF.") (re.union (str.to_re "X") (str.to_re "w")))) (re.union (str.to_re "U!") (re.union (str.to_re "\\O") (re.union (str.to_re "{") (str.to_re ")S0")))))))) (re.++ ((_ re.loop 19 33) (re.++ (re.union (str.to_re "'") (re.union (str.to_re ":#") (re.union (str.to_re "S)l") (str.to_re "D")))) (re.++ (re.union (str.to_re ":%") (re.union (str.to_re "v") (re.union (str.to_re "I_G") (str.to_re "P[\\")))) (re.++ (re.union (str.to_re "A") (re.union (str.to_re "W\\p") (re.union (str.to_re "J1") (str.to_re "`|7")))) (re.union (str.to_re "st") (re.union (str.to_re "]!3") (re.union (str.to_re "'") (str.to_re "fd4")))))))) ((_ re.loop 12 116) (re.++ (re.union (str.to_re "!") (re.union (str.to_re "\u0022") (re.union (str.to_re "HY") (str.to_re "A_4")))) (re.++ (re.union (str.to_re "U") (re.union (str.to_re "Y{") (re.union (str.to_re "p+1") (str.to_re "{")))) (re.++ (re.union (str.to_re "S") (re.union (str.to_re "{5=") (re.union (str.to_re "d>;") (str.to_re "c\\E")))) (re.union (str.to_re ":") (re.union (str.to_re "g") (re.union (str.to_re "b") (str.to_re "0"))))))))))))))
(assert (not (str.in_re var0 (re.++ ((_ re.loop 0 654) (re.++ (re.union (str.to_re "(u1") (re.union (str.to_re "p*w") (re.union (str.to_re "`o") (str.to_re "1")))) (re.++ (re.union (str.to_re "M~M") (re.union (str.to_re "Z") (re.union (str.to_re "EGy") (str.to_re "Dav")))) (re.++ (re.union (str.to_re "p3") (re.union (str.to_re "n@'") (re.union (str.to_re "%*") (str.to_re "Y")))) (re.union (str.to_re "#") (re.union (str.to_re "p7T") (re.union (str.to_re "(") (str.to_re "Dq")))))))) (re.++ ((_ re.loop 7 569) (re.++ (re.union (str.to_re "ZL") (re.union (str.to_re "{>") (re.union (str.to_re "Kj") (str.to_re "?7<")))) (re.++ (re.union (str.to_re "B") (re.union (str.to_re "h") (re.union (str.to_re "P") (str.to_re "Z;")))) (re.++ (re.union (str.to_re "_:+") (re.union (str.to_re "<") (re.union (str.to_re "Ka") (str.to_re "G")))) (re.union (str.to_re "!>") (re.union (str.to_re "<0") (re.union (str.to_re "bi*") (str.to_re "}tA")))))))) (re.++ ((_ re.loop 3 143) (re.++ (re.union (str.to_re "O") (re.union (str.to_re "x") (re.union (str.to_re "H") (str.to_re "9")))) (re.++ (re.union (str.to_re "U") (re.union (str.to_re "{") (re.union (str.to_re "$") (str.to_re "'")))) (re.++ (re.union (str.to_re "\\") (re.union (str.to_re "?`0") (re.union (str.to_re "oa)") (str.to_re "f")))) (re.union (str.to_re "T") (re.union (str.to_re "zgS") (re.union (str.to_re "q(g") (str.to_re "B2")))))))) ((_ re.loop 1 772) (re.++ (re.union (str.to_re "{b9") (re.union (str.to_re "kE") (re.union (str.to_re "p") (str.to_re "wmq")))) (re.++ (re.union (str.to_re "Kj|") (re.union (str.to_re "^a") (re.union (str.to_re "Ha1") (str.to_re "|")))) (re.++ (re.union (str.to_re "Hp") (re.union (str.to_re "\\") (re.union (str.to_re "u\\@") (str.to_re "_")))) (re.union (str.to_re "w") (re.union (str.to_re "d") (re.union (str.to_re "+") (str.to_re "X7m"))))))))))))))
(assert (not (str.in_re var0 (re.++ (re.* re.allchar) (re.++ (re.union (str.to_re "<") (re.union (str.to_re ">") (re.union (str.to_re "'") (re.union (str.to_re "\u0022") (str.to_re "&"))))) (re.* re.allchar))))))
(assert (<= 50 (str.len var0)))
(check-sat)
(get-model)
